90 117470
76 45 86 70 9 88 23 22 34 27 8 48 56 41 15 38 30 59 75 69 52 83 55 16 7 19 57 44 71 49 47 33 80 3 36 51 58 84 78 12 72 85 65 37 89 13 66 54 61 46 87 18 28 4 68 6 90 26 74 79 25 62 20 43 32 14 63 60 17 11 67 35 39 50 29 73 21 81 40 77 5 42 31 53 2 10 1 24 64 82 
